DATASET = "thpack5";
INSTANCE = "086";

WIDTH = 233;
HEIGHT = 220;
LENGTH = 587;

NO_OF_SHAPES = 12;
size = [|
  87,33,28 |
  97,70,57 |
  71,57,38 |
  63,53,47 |
  77,56,37 |
  102,67,47 |
  72,31,29 |
  84,58,38 |
  84,57,56 |
  88,76,33 |
  109,76,73 |
  57,55,54 |
|];

verticality = [|
  0,1,1 |
  1,1,1 |
  1,1,1 |
  1,1,1 |
  0,1,1 |
  0,1,1 |
  0,1,1 |
  0,1,1 |
  1,1,1 |
  0,0,1 |
  1,1,1 |
  1,1,1 |
|];

box_count = [
  9,
  17,
  10,
  12,
  9,
  9,
  10,
  7,
  14,
  11,
  8,
  10,
];
